c Random generated cnf formula, satisfiable: true
p cnf 10 50
-1 -10 2 0
-3 4 -6 0
-6 -7 2 0
10 1 -3 0
1 -6 -10 0
-10 -9 -1 0
10 3 1 0
-2 6 4 0
-7 -4 -1 0
-3 -9 10 0
10 2 -1 0
-3 5 7 0
-9 3 7 0
-6 -3 10 0
10 -1 -8 0
1 10 -4 0
-10 -6 -7 0
7 8 -5 0
-4 -5 2 0
-7 -4 -10 0
9 5 6 0
9 -8 -5 0
2 -9 -1 0
4 3 -10 0
-7 8 -9 0
-1 -10 8 0
-4 1 6 0
2 -3 5 0
8 -1 -3 0
6 8 -5 0
-2 -9 4 0
-10 -3 5 0
7 5 -3 0
7 5 6 0
-7 -2 -6 0
10 -9 1 0
10 -8 -1 0
-5 4 3 0
10 5 1 0
-2 -3 -4 0
-6 -2 -3 0
9 -4 -2 0
6 3 -9 0
2 -6 -4 0
1 8 -2 0
-6 -7 -10 0
-1 10 -7 0
-6 1 -5 0
2 10 -4 0
8 -2 -10 0
